min: c;

c = 3.34817210304806 * u4_t1_h1 + 3.77518131959164 * u4_t1_h2 + 3.18633693088543 * u4_t1_h3 + 3.51893900213272 * u4_t1_h4 + 3.51893900213272 * u4_t10_h4 + 3.23091888701609 * u4_t1_h5 + 3.23091888701609 * u4_t10_h5 + 3.80439804722484 * u4_t1_h6 + 3.80439804722484 * u4_t10_h6 + 4.15113786639136 * u4_t1_h7 + 4.15113786639136 * u4_t10_h7 + 5.10695160637244 * u4_t1_h8 + 5.10695160637244 * u4_t9_h8 + 5.10695160637244 * u4_t10_h8 + 4.74002297037331 * u4_t9_h9 + 4.74002297037331 * u4_t10_h9 + 5.27659808020211 * u4_t9_h10 + 5.27659808020211 * u4_t10_h10 + 4.04781415506191 * u4_t2_h11 + 4.04781415506191 * u4_t4_h11 + 4.04781415506191 * u4_t9_h11 + 4.04781415506191 * u4_t10_h11 + 6.15898041469568 * u4_t2_h12 + 6.15898041469568 * u4_t3_h12 + 6.15898041469568 * u4_t4_h12 + 6.15898041469568 * u4_t8_h12 + 6.15898041469568 * u4_t9_h12 + 6.15898041469568 * u4_t10_h12 + 4.59539717063176 * u4_t2_h13 + 4.59539717063176 * u4_t3_h13 + 4.59539717063176 * u4_t4_h13 + 4.59539717063176 * u4_t8_h13 + 4.59539717063176 * u4_t9_h13 + 5.87413479368636 * u4_t2_h14 + 5.87413479368636 * u4_t3_h14 + 5.87413479368636 * u4_t4_h14 + 5.87413479368636 * u4_t8_h14 + 5.87413479368636 * u4_t9_h14 + 5.79268295623399 * u4_t2_h15 + 5.79268295623399 * u4_t3_h15 + 5.79268295623399 * u4_t4_h15 + 5.79268295623399 * u4_t8_h15 + 5.79268295623399 * u4_t9_h15 + 5.48859205119102 * u4_t2_h16 + 5.48859205119102 * u4_t3_h16 + 5.48859205119102 * u4_t4_h16 + 5.48859205119102 * u4_t5_h16 + 5.48859205119102 * u4_t8_h16 + 5.48859205119102 * u4_t9_h16 + 6.59080911853294 * u4_t2_h17 + 6.59080911853294 * u4_t3_h17 + 6.59080911853294 * u4_t5_h17 + 6.59080911853294 * u4_t8_h17 + 6.59080911853294 * u4_t9_h17 + 6.1123845143503 * u4_t2_h18 + 6.1123845143503 * u4_t3_h18 + 6.1123845143503 * u4_t5_h18 + 6.1123845143503 * u4_t8_h18 + 6.1123845143503 * u4_t9_h18 + 5.52835571347566 * u4_t2_h19 + 5.52835571347566 * u4_t3_h19 + 5.52835571347566 * u4_t6_h19 + 5.52835571347566 * u4_t8_h19 + 5.52835571347566 * u4_t9_h19 + 5.15056000969758 * u4_t2_h20 + 5.15056000969758 * u4_t6_h20 + 5.15056000969758 * u4_t9_h20 + 4.84073788949785 * u4_t6_h21 + 6.05679210902429 * u4_t6_h22 + 6.05679210902429 * u4_t7_h22 + 5.78778752944181 * u4_t6_h23 + 5.78778752944181 * u4_t7_h23;
0 <= u4_t1_h1 <= 1;
0 <= u4_t1_h2 <= 1;
0 <= u4_t1_h3 <= 1;
0 <= u4_t1_h4 <= 1;
0 <= u4_t1_h5 <= 1;
0 <= u4_t1_h6 <= 1;
0 <= u4_t1_h7 <= 1;
0 <= u4_t1_h8 <= 1;
u4_t1_h1 + u4_t1_h2 + u4_t1_h3 + u4_t1_h4 + u4_t1_h5 + u4_t1_h6 + u4_t1_h7 + u4_t1_h8 = 1;
0 <= u4_t2_h11 <= 1;
0 <= u4_t2_h12 <= 1;
0 <= u4_t2_h13 <= 1;
0 <= u4_t2_h14 <= 1;
0 <= u4_t2_h15 <= 1;
0 <= u4_t2_h16 <= 1;
0 <= u4_t2_h17 <= 1;
0 <= u4_t2_h18 <= 1;
0 <= u4_t2_h19 <= 1;
0 <= u4_t2_h20 <= 1;
u4_t2_h11 + u4_t2_h12 + u4_t2_h13 + u4_t2_h14 + u4_t2_h15 + u4_t2_h16 + u4_t2_h17 + u4_t2_h18 + u4_t2_h19 + u4_t2_h20 = 2;
0 <= u4_t3_h12 <= 1;
0 <= u4_t3_h13 <= 1;
0 <= u4_t3_h14 <= 1;
0 <= u4_t3_h15 <= 1;
0 <= u4_t3_h16 <= 1;
0 <= u4_t3_h17 <= 1;
0 <= u4_t3_h18 <= 1;
0 <= u4_t3_h19 <= 1;
u4_t3_h12 + u4_t3_h13 + u4_t3_h14 + u4_t3_h15 + u4_t3_h16 + u4_t3_h17 + u4_t3_h18 + u4_t3_h19 = 3;
0 <= u4_t4_h11 <= 1;
0 <= u4_t4_h12 <= 1;
0 <= u4_t4_h13 <= 1;
0 <= u4_t4_h14 <= 1;
0 <= u4_t4_h15 <= 1;
0 <= u4_t4_h16 <= 1;
u4_t4_h11 + u4_t4_h12 + u4_t4_h13 + u4_t4_h14 + u4_t4_h15 + u4_t4_h16 = 3;
0 <= u4_t5_h16 <= 1;
0 <= u4_t5_h17 <= 1;
0 <= u4_t5_h18 <= 1;
u4_t5_h16 + u4_t5_h17 + u4_t5_h18 = 1;
0 <= u4_t6_h19 <= 1;
0 <= u4_t6_h20 <= 1;
0 <= u4_t6_h21 <= 1;
0 <= u4_t6_h22 <= 1;
0 <= u4_t6_h23 <= 1;
u4_t6_h19 + u4_t6_h20 + u4_t6_h21 + u4_t6_h22 + u4_t6_h23 = 3;
0 <= u4_t7_h22 <= 1;
0 <= u4_t7_h23 <= 1;
u4_t7_h22 + u4_t7_h23 = 1;
0 <= u4_t8_h12 <= 1;
0 <= u4_t8_h13 <= 1;
0 <= u4_t8_h14 <= 1;
0 <= u4_t8_h15 <= 1;
0 <= u4_t8_h16 <= 1;
0 <= u4_t8_h17 <= 1;
0 <= u4_t8_h18 <= 1;
0 <= u4_t8_h19 <= 1;
u4_t8_h12 + u4_t8_h13 + u4_t8_h14 + u4_t8_h15 + u4_t8_h16 + u4_t8_h17 + u4_t8_h18 + u4_t8_h19 = 2;
0 <= u4_t9_h8 <= 1;
0 <= u4_t9_h9 <= 1;
0 <= u4_t9_h10 <= 1;
0 <= u4_t9_h11 <= 1;
0 <= u4_t9_h12 <= 1;
0 <= u4_t9_h13 <= 1;
0 <= u4_t9_h14 <= 1;
0 <= u4_t9_h15 <= 1;
0 <= u4_t9_h16 <= 1;
0 <= u4_t9_h17 <= 1;
0 <= u4_t9_h18 <= 1;
0 <= u4_t9_h19 <= 1;
0 <= u4_t9_h20 <= 1;
u4_t9_h8 + u4_t9_h9 + u4_t9_h10 + u4_t9_h11 + u4_t9_h12 + u4_t9_h13 + u4_t9_h14 + u4_t9_h15 + u4_t9_h16 + u4_t9_h17 + u4_t9_h18 + u4_t9_h19 + u4_t9_h20 = 2;
0 <= u4_t10_h4 <= 1;
0 <= u4_t10_h5 <= 1;
0 <= u4_t10_h6 <= 1;
0 <= u4_t10_h7 <= 1;
0 <= u4_t10_h8 <= 1;
0 <= u4_t10_h9 <= 1;
0 <= u4_t10_h10 <= 1;
0 <= u4_t10_h11 <= 1;
0 <= u4_t10_h12 <= 1;
u4_t10_h4 + u4_t10_h5 + u4_t10_h6 + u4_t10_h7 + u4_t10_h8 + u4_t10_h9 + u4_t10_h10 + u4_t10_h11 + u4_t10_h12 = 2;
